p wcnf 166 83 84 
1 46 -89 0 
1 -80 -10 0 
1 118 157 0 
1 83 -19 0 
1 32 -109 0 
1 -152 98 0 
1 139 120 0 
1 -140 -115 0 
1 39 -96 0 
1 13 122 0 
1 60 -140 0 
1 -158 -139 0 
1 12 -10 0 
1 116 -88 0 
1 94 -32 0 
1 13 -57 0 
1 136 -9 0 
1 -69 161 0 
1 -88 148 0 
1 44 -1 0 
1 -153 -66 0 
1 86 -95 0 
1 -33 -4 0 
1 115 60 0 
1 15 -53 0 
1 132 -25 0 
1 -57 42 0 
1 -145 112 0 
1 -128 97 0 
1 -45 -18 0 
1 -62 92 0 
1 -149 127 0 
1 52 -46 0 
1 -65 -84 0 
1 166 -45 0 
1 -137 116 0 
1 95 163 0 
1 -122 -120 0 
1 40 29 0 
1 13 82 0 
1 126 -80 0 
1 45 119 0 
1 -165 83 0 
1 -97 -143 0 
1 112 -1 0 
1 -108 54 0 
1 -39 -114 0 
1 29 53 0 
1 155 -96 0 
1 87 -49 0 
1 -158 116 0 
1 -46 36 0 
1 34 39 0 
1 -128 149 0 
1 -74 165 0 
1 -43 152 0 
1 6 -99 0 
1 62 21 0 
1 130 100 0 
1 -23 72 0 
1 61 117 0 
1 86 77 0 
1 49 -111 0 
1 162 158 0 
1 111 -140 0 
1 -151 160 0 
1 91 -132 0 
1 7 -156 0 
1 -108 -103 0 
1 61 147 0 
1 -7 -165 0 
1 -92 37 0 
1 20 -77 0 
1 62 17 0 
1 -130 -117 0 
1 -5 28 0 
1 118 25 0 
1 -24 10 0 
1 -127 110 0 
1 1 -136 0 
1 41 -80 0 
1 138 4 0 
1 -82 -43 0 
